p cnf 386 460
-19 -18 -12 21 22 0
-19 -18 -12 21 -22 0
-19 -18 -12 -21 23 0
-19 -18 -12 -21 -23 0
2 -10 -17 24 25 0
2 -10 -17 24 -25 0
2 -10 -17 -24 26 0
2 -10 -17 -24 -26 0
12 -4 -5 27 28 0
12 -4 -5 27 -28 0
12 -4 -5 -27 29 0
12 -4 -5 -27 -29 0
-8 16 -12 30 31 0
-8 16 -12 30 -31 0
-8 16 -12 -30 32 0
-8 16 -12 -30 -32 0
14 6 8 33 34 0
14 6 8 33 -34 0
14 6 8 -33 35 0
14 6 8 -33 -35 0
-19 -17 20 36 37 0
-19 -17 20 36 -37 0
-19 -17 20 -36 38 0
-19 -17 20 -36 -38 0
4 -20 18 39 40 0
4 -20 18 39 -40 0
4 -20 18 -39 41 0
4 -20 18 -39 -41 0
-17 -2 -13 42 43 0
-17 -2 -13 42 -43 0
-17 -2 -13 -42 44 0
-17 -2 -13 -42 -44 0
-7 -14 -18 45 46 0
-7 -14 -18 45 -46 0
-7 -14 -18 -45 47 0
-7 -14 -18 -45 -47 0
6 1 5 48 49 0
6 1 5 48 -49 0
6 1 5 -48 50 0
6 1 5 -48 -50 0
-5 -2 -10 51 52 0
-5 -2 -10 51 -52 0
-5 -2 -10 -51 53 0
-5 -2 -10 -51 -53 0
1 -13 -8 54 55 0
1 -13 -8 54 -55 0
1 -13 -8 -54 56 0
1 -13 -8 -54 -56 0
3 -13 -8 57 58 0
3 -13 -8 57 -58 0
3 -13 -8 -57 59 0
3 -13 -8 -57 -59 0
8 -4 -5 60 61 0
8 -4 -5 60 -61 0
8 -4 -5 -60 62 0
8 -4 -5 -60 -62 0
3 1 -7 63 64 0
3 1 -7 63 -64 0
3 1 -7 -63 65 0
3 1 -7 -63 -65 0
-12 -7 -10 66 67 0
-12 -7 -10 66 -67 0
-12 -7 -10 -66 68 0
-12 -7 -10 -66 -68 0
12 -4 -17 69 70 0
12 -4 -17 69 -70 0
12 -4 -17 -69 71 0
12 -4 -17 -69 -71 0
15 7 20 72 73 0
15 7 20 72 -73 0
15 7 20 -72 74 0
15 7 20 -72 -74 0
9 10 -13 75 76 0
9 10 -13 75 -76 0
9 10 -13 -75 77 0
9 10 -13 -75 -77 0
-5 -9 -2 78 79 0
-5 -9 -2 78 -79 0
-5 -9 -2 -78 80 0
-5 -9 -2 -78 -80 0
-3 -1 5 81 82 0
-3 -1 5 81 -82 0
-3 -1 5 -81 83 0
-3 -1 5 -81 -83 0
-2 -11 5 84 85 0
-2 -11 5 84 -85 0
-2 -11 5 -84 86 0
-2 -11 5 -84 -86 0
-17 -8 -10 87 88 0
-17 -8 -10 87 -88 0
-17 -8 -10 -87 89 0
-17 -8 -10 -87 -89 0
-5 1 -4 90 91 0
-5 1 -4 90 -91 0
-5 1 -4 -90 92 0
-5 1 -4 -90 -92 0
-11 -9 -1 93 94 0
-11 -9 -1 93 -94 0
-11 -9 -1 -93 95 0
-11 -9 -1 -93 -95 0
-10 -2 -15 96 97 0
-10 -2 -15 96 -97 0
-10 -2 -15 -96 98 0
-10 -2 -15 -96 -98 0
-15 -16 -5 99 100 0
-15 -16 -5 99 -100 0
-15 -16 -5 -99 101 0
-15 -16 -5 -99 -101 0
-2 11 -5 102 103 0
-2 11 -5 102 -103 0
-2 11 -5 -102 104 0
-2 11 -5 -102 -104 0
6 11 17 105 106 0
6 11 17 105 -106 0
6 11 17 -105 107 0
6 11 17 -105 -107 0
1 18 9 108 109 0
1 18 9 108 -109 0
1 18 9 -108 110 0
1 18 9 -108 -110 0
15 -19 10 111 112 0
15 -19 10 111 -112 0
15 -19 10 -111 113 0
15 -19 10 -111 -113 0
4 7 -19 114 115 0
4 7 -19 114 -115 0
4 7 -19 -114 116 0
4 7 -19 -114 -116 0
6 -7 2 117 118 0
6 -7 2 117 -118 0
6 -7 2 -117 119 0
6 -7 2 -117 -119 0
6 -4 20 120 121 0
6 -4 20 120 -121 0
6 -4 20 -120 122 0
6 -4 20 -120 -122 0
-3 -13 -4 123 124 0
-3 -13 -4 123 -124 0
-3 -13 -4 -123 125 0
-3 -13 -4 -123 -125 0
19 -8 12 126 127 0
19 -8 12 126 -127 0
19 -8 12 -126 128 0
19 -8 12 -126 -128 0
10 1 -11 129 130 0
10 1 -11 129 -130 0
10 1 -11 -129 131 0
10 1 -11 -129 -131 0
20 15 -2 132 133 0
20 15 -2 132 -133 0
20 15 -2 -132 134 0
20 15 -2 -132 -134 0
10 -11 -3 135 136 0
10 -11 -3 135 -136 0
10 -11 -3 -135 137 0
10 -11 -3 -135 -137 0
15 -7 -19 138 139 0
15 -7 -19 138 -139 0
15 -7 -19 -138 140 0
15 -7 -19 -138 -140 0
-4 7 3 141 142 0
-4 7 3 141 -142 0
-4 7 3 -141 143 0
-4 7 3 -141 -143 0
2 -4 -17 144 145 0
2 -4 -17 144 -145 0
2 -4 -17 -144 146 0
2 -4 -17 -144 -146 0
9 -8 -14 147 148 0
9 -8 -14 147 -148 0
9 -8 -14 -147 149 0
9 -8 -14 -147 -149 0
19 -2 -16 150 151 0
19 -2 -16 150 -151 0
19 -2 -16 -150 152 0
19 -2 -16 -150 -152 0
-2 -9 -17 153 154 0
-2 -9 -17 153 -154 0
-2 -9 -17 -153 155 0
-2 -9 -17 -153 -155 0
-11 19 3 156 157 0
-11 19 3 156 -157 0
-11 19 3 -156 158 0
-11 19 3 -156 -158 0
-1 -11 10 159 160 0
-1 -11 10 159 -160 0
-1 -11 10 -159 161 0
-1 -11 10 -159 -161 0
-10 9 -4 162 163 0
-10 9 -4 162 -163 0
-10 9 -4 -162 164 0
-10 9 -4 -162 -164 0
17 -3 13 165 166 0
17 -3 13 165 -166 0
17 -3 13 -165 167 0
17 -3 13 -165 -167 0
5 6 -20 168 169 0
5 6 -20 168 -169 0
5 6 -20 -168 170 0
5 6 -20 -168 -170 0
16 19 18 171 172 0
16 19 18 171 -172 0
16 19 18 -171 173 0
16 19 18 -171 -173 0
10 -19 -12 174 175 0
10 -19 -12 174 -175 0
10 -19 -12 -174 176 0
10 -19 -12 -174 -176 0
-16 7 4 177 178 0
-16 7 4 177 -178 0
-16 7 4 -177 179 0
-16 7 4 -177 -179 0
16 1 8 180 181 0
16 1 8 180 -181 0
16 1 8 -180 182 0
16 1 8 -180 -182 0
11 -8 -10 183 184 0
11 -8 -10 183 -184 0
11 -8 -10 -183 185 0
11 -8 -10 -183 -185 0
6 -7 -9 186 187 0
6 -7 -9 186 -187 0
6 -7 -9 -186 188 0
6 -7 -9 -186 -188 0
-6 -5 -15 189 190 0
-6 -5 -15 189 -190 0
-6 -5 -15 -189 191 0
-6 -5 -15 -189 -191 0
-11 7 20 192 193 0
-11 7 20 192 -193 0
-11 7 20 -192 194 0
-11 7 20 -192 -194 0
19 1 4 195 196 0
19 1 4 195 -196 0
19 1 4 -195 197 0
19 1 4 -195 -197 0
-10 19 14 198 199 0
-10 19 14 198 -199 0
-10 19 14 -198 200 0
-10 19 14 -198 -200 0
-10 -15 12 201 202 0
-10 -15 12 201 -202 0
-10 -15 12 -201 203 0
-10 -15 12 -201 -203 0
15 -2 12 204 205 0
15 -2 12 204 -205 0
15 -2 12 -204 206 0
15 -2 12 -204 -206 0
3 -9 2 207 208 0
3 -9 2 207 -208 0
3 -9 2 -207 209 0
3 -9 2 -207 -209 0
2 15 -9 210 211 0
2 15 -9 210 -211 0
2 15 -9 -210 212 0
2 15 -9 -210 -212 0
-17 -2 -9 213 214 0
-17 -2 -9 213 -214 0
-17 -2 -9 -213 215 0
-17 -2 -9 -213 -215 0
6 -5 -4 216 217 0
6 -5 -4 216 -217 0
6 -5 -4 -216 218 0
6 -5 -4 -216 -218 0
3 7 1 219 220 0
3 7 1 219 -220 0
3 7 1 -219 221 0
3 7 1 -219 -221 0
14 -11 -13 222 223 0
14 -11 -13 222 -223 0
14 -11 -13 -222 224 0
14 -11 -13 -222 -224 0
2 -4 -20 225 226 0
2 -4 -20 225 -226 0
2 -4 -20 -225 227 0
2 -4 -20 -225 -227 0
-7 -12 18 228 229 0
-7 -12 18 228 -229 0
-7 -12 18 -228 230 0
-7 -12 18 -228 -230 0
-5 -20 3 231 232 0
-5 -20 3 231 -232 0
-5 -20 3 -231 233 0
-5 -20 3 -231 -233 0
19 -4 -7 234 235 0
19 -4 -7 234 -235 0
19 -4 -7 -234 236 0
19 -4 -7 -234 -236 0
17 -3 8 237 238 0
17 -3 8 237 -238 0
17 -3 8 -237 239 0
17 -3 8 -237 -239 0
5 -2 -1 240 241 0
5 -2 -1 240 -241 0
5 -2 -1 -240 242 0
5 -2 -1 -240 -242 0
-16 7 9 243 244 0
-16 7 9 243 -244 0
-16 7 9 -243 245 0
-16 7 9 -243 -245 0
-15 12 5 246 247 0
-15 12 5 246 -247 0
-15 12 5 -246 248 0
-15 12 5 -246 -248 0
3 -6 9 249 250 0
3 -6 9 249 -250 0
3 -6 9 -249 251 0
3 -6 9 -249 -251 0
6 -1 -13 252 253 0
6 -1 -13 252 -253 0
6 -1 -13 -252 254 0
6 -1 -13 -252 -254 0
14 -1 -15 255 256 0
14 -1 -15 255 -256 0
14 -1 -15 -255 257 0
14 -1 -15 -255 -257 0
-19 -7 20 258 259 0
-19 -7 20 258 -259 0
-19 -7 20 -258 260 0
-19 -7 20 -258 -260 0
7 -5 -10 261 262 0
7 -5 -10 261 -262 0
7 -5 -10 -261 263 0
7 -5 -10 -261 -263 0
-7 18 -17 264 265 0
-7 18 -17 264 -265 0
-7 18 -17 -264 266 0
-7 18 -17 -264 -266 0
-20 -12 -15 267 268 0
-20 -12 -15 267 -268 0
-20 -12 -15 -267 269 0
-20 -12 -15 -267 -269 0
-6 -14 -13 270 271 0
-6 -14 -13 270 -271 0
-6 -14 -13 -270 272 0
-6 -14 -13 -270 -272 0
-11 16 -20 273 274 0
-11 16 -20 273 -274 0
-11 16 -20 -273 275 0
-11 16 -20 -273 -275 0
15 -14 18 276 277 0
15 -14 18 276 -277 0
15 -14 18 -276 278 0
15 -14 18 -276 -278 0
-15 -5 -6 279 280 0
-15 -5 -6 279 -280 0
-15 -5 -6 -279 281 0
-15 -5 -6 -279 -281 0
-5 -19 4 282 283 0
-5 -19 4 282 -283 0
-5 -19 4 -282 284 0
-5 -19 4 -282 -284 0
13 -16 -17 285 286 0
13 -16 -17 285 -286 0
13 -16 -17 -285 287 0
13 -16 -17 -285 -287 0
-19 -6 -9 288 289 0
-19 -6 -9 288 -289 0
-19 -6 -9 -288 290 0
-19 -6 -9 -288 -290 0
-11 10 -8 291 292 0
-11 10 -8 291 -292 0
-11 10 -8 -291 293 0
-11 10 -8 -291 -293 0
294 295 297 301 309 0
294 295 297 301 -309 0
294 295 297 -301 310 0
294 295 297 -301 -310 0
294 295 -297 302 311 0
294 295 -297 302 -311 0
294 295 -297 -302 312 0
294 295 -297 -302 -312 0
294 -295 298 303 313 0
294 -295 298 303 -313 0
294 -295 298 -303 314 0
294 -295 298 -303 -314 0
294 -295 -298 304 315 0
294 -295 -298 304 -315 0
294 -295 -298 -304 316 0
294 -295 -298 -304 -316 0
-294 296 299 305 317 0
-294 296 299 305 -317 0
-294 296 299 -305 318 0
-294 296 299 -305 -318 0
-294 296 -299 306 319 0
-294 296 -299 306 -319 0
-294 296 -299 -306 320 0
-294 296 -299 -306 -320 0
-294 -296 300 307 321 0
-294 -296 300 307 -321 0
-294 -296 300 -307 322 0
-294 -296 300 -307 -322 0
-294 -296 -300 308 323 0
-294 -296 -300 308 -323 0
-294 -296 -300 -308 324 0
-294 -296 -300 -308 -324 0
325 326 328 332 340 0
325 326 328 332 -340 0
325 326 328 -332 341 0
325 326 328 -332 -341 0
325 326 -328 333 342 0
325 326 -328 333 -342 0
325 326 -328 -333 343 0
325 326 -328 -333 -343 0
325 -326 329 334 344 0
325 -326 329 334 -344 0
325 -326 329 -334 345 0
325 -326 329 -334 -345 0
325 -326 -329 335 346 0
325 -326 -329 335 -346 0
325 -326 -329 -335 347 0
325 -326 -329 -335 -347 0
-325 327 330 336 348 0
-325 327 330 336 -348 0
-325 327 330 -336 349 0
-325 327 330 -336 -349 0
-325 327 -330 337 350 0
-325 327 -330 337 -350 0
-325 327 -330 -337 351 0
-325 327 -330 -337 -351 0
-325 -327 331 338 352 0
-325 -327 331 338 -352 0
-325 -327 331 -338 353 0
-325 -327 331 -338 -353 0
-325 -327 -331 339 354 0
-325 -327 -331 339 -354 0
-325 -327 -331 -339 355 0
-325 -327 -331 -339 -355 0
356 357 359 363 371 0
356 357 359 363 -371 0
356 357 359 -363 372 0
356 357 359 -363 -372 0
356 357 -359 364 373 0
356 357 -359 364 -373 0
356 357 -359 -364 374 0
356 357 -359 -364 -374 0
356 -357 360 365 375 0
356 -357 360 365 -375 0
356 -357 360 -365 376 0
356 -357 360 -365 -376 0
356 -357 -360 366 377 0
356 -357 -360 366 -377 0
356 -357 -360 -366 378 0
356 -357 -360 -366 -378 0
-356 358 361 367 379 0
-356 358 361 367 -379 0
-356 358 361 -367 380 0
-356 358 361 -367 -380 0
-356 358 -361 368 381 0
-356 358 -361 368 -381 0
-356 358 -361 -368 382 0
-356 358 -361 -368 -382 0
-356 -358 362 369 383 0
-356 -358 362 369 -383 0
-356 -358 362 -369 384 0
-356 -358 362 -369 -384 0
-356 -358 -362 370 385 0
-356 -358 -362 370 -385 0
-356 -358 -362 -370 386 0
-356 -358 -362 -370 -386 0

